
Gurobi 11.0.2 (win64) logging started Mon Jan 20 14:47:32 2025

Set parameter LogFile to value "log_MTTP1_targetS1_E1_Gurobi.log"
Set parameter Method to value 0

Gurobi 11.0.2 (win64) logging started Mon Jan 20 14:47:42 2025

Set parameter LogFile to value "log_MTTP1_targetS1_E1_Gurobi.log"
Gurobi Optimizer version 11.0.2 build v11.0.2rc0 (win64 - Windows 11.0 (22621.2))

CPU model: 12th Gen Intel(R) Core(TM) i7-12700, instruction set [SSE2|AVX|AVX2]
Thread count: 12 physical cores, 20 logical processors, using up to 20 threads

Optimize a model with 5012233 rows, 5829 columns and 10027593 nonzeros
Model fingerprint: 0xe3d6bc1b
Variable types: 0 continuous, 5829 integer (5829 binary)
Coefficient statistics:
  Matrix range     [1e+00, 1e+00]
  Objective range  [1e+00, 1e+00]
  Bounds range     [0e+00, 0e+00]
  RHS range        [1e+00, 2e+00]
Found heuristic solution: objective -0.0000000
Presolve removed 4986410 rows and 0 columns
Presolve time: 1.06s
Presolved: 25823 rows, 5829 columns, 54773 nonzeros
Variable types: 0 continuous, 5829 integer (5829 binary)

Root relaxation: objective 6.666667e+02, 4486 iterations, 0.04 seconds (0.03 work units)

    Nodes    |    Current Node    |     Objective Bounds      |     Work
 Expl Unexpl |  Obj  Depth IntInf | Incumbent    BestBd   Gap | It/Node Time

     0     0  666.66667    0   79   -0.00000  666.66667      -     -    1s
H    0     0                     655.0000000  666.66667  1.78%     -    1s
H    0     0                     661.0000000  666.66667  0.86%     -    1s
H    0     0                     664.0000000  666.66667  0.40%     -    1s
     0     0     cutoff    0       664.00000  664.00000  0.00%     -    1s

Cutting planes:
  Gomory: 8
  Clique: 6
  MIR: 1
  Zero half: 23

Explored 1 nodes (7282 simplex iterations) in 2.07 seconds (2.09 work units)
Thread count was 20 (of 20 available processors)

Solution count 5: 664 661 655 ... -0

Optimal solution found (tolerance 1.00e-04)
Best objective 6.640000000000e+02, best bound 6.640000000000e+02, gap 0.0000%

User-callback calls 629, time in user-callback 0.00 sec

Gurobi 11.0.2 (win64) logging started Tue Jan 21 04:04:56 2025

Set parameter LogFile to value "log_MTTP1_targetS1_E1_Gurobi.log"
Set parameter Method to value 0

Gurobi 11.0.2 (win64) logging started Tue Jan 21 04:05:07 2025

Set parameter LogFile to value "log_MTTP1_targetS1_E1_Gurobi.log"
Gurobi Optimizer version 11.0.2 build v11.0.2rc0 (win64 - Windows 11.0 (22621.2))

CPU model: 12th Gen Intel(R) Core(TM) i7-12700, instruction set [SSE2|AVX|AVX2]
Thread count: 12 physical cores, 20 logical processors, using up to 20 threads

Optimize a model with 5012233 rows, 5829 columns and 10027593 nonzeros
Model fingerprint: 0xe3d6bc1b
Variable types: 0 continuous, 5829 integer (5829 binary)
Coefficient statistics:
  Matrix range     [1e+00, 1e+00]
  Objective range  [1e+00, 1e+00]
  Bounds range     [0e+00, 0e+00]
  RHS range        [1e+00, 2e+00]
Found heuristic solution: objective -0.0000000
Presolve removed 4986410 rows and 0 columns
Presolve time: 1.06s
Presolved: 25823 rows, 5829 columns, 54773 nonzeros
Variable types: 0 continuous, 5829 integer (5829 binary)

Root relaxation: objective 6.666667e+02, 4486 iterations, 0.03 seconds (0.03 work units)

    Nodes    |    Current Node    |     Objective Bounds      |     Work
 Expl Unexpl |  Obj  Depth IntInf | Incumbent    BestBd   Gap | It/Node Time

     0     0  666.66667    0   79   -0.00000  666.66667      -     -    1s
H    0     0                     655.0000000  666.66667  1.78%     -    1s
H    0     0                     661.0000000  666.66667  0.86%     -    1s
H    0     0                     664.0000000  666.66667  0.40%     -    1s
     0     0     cutoff    0       664.00000  664.00000  0.00%     -    1s

Cutting planes:
  Gomory: 8
  Clique: 6
  MIR: 1
  Zero half: 23

Explored 1 nodes (7282 simplex iterations) in 2.11 seconds (2.09 work units)
Thread count was 20 (of 20 available processors)

Solution count 5: 664 661 655 ... -0

Optimal solution found (tolerance 1.00e-04)
Best objective 6.640000000000e+02, best bound 6.640000000000e+02, gap 0.0000%

User-callback calls 643, time in user-callback 0.00 sec
